(set-logic QF_NRA)
(set-info :source |Benchmarks generated from hycomp (https://es-static.fbk.eu/tools/hycomp/). BMC instances of non-linear hybrid automata taken from: Alessandro Cimatti, Sergio Mover, Stefano Tonetta, A quantifier-free SMT encoding of non-linear hybrid automata, FMCAD 2012 and Alessandro Cimatti, Sergio Mover, Stefano Tonetta, Quantier-free encoding of invariants for Hybrid Systems, Formal Methods in System Design. This instance solves a BMC problem of depth 2 and uses the encoding obtained with quantifier elimination using redlog encoding. Contacts: Sergio Mover (mover@fbk.eu), Stefano Tonetta (tonettas@fbk.eu), Alessandro Cimatti (cimatti@fbk.eu).|)
(set-info :smt-lib-version 2.0)
(set-info :category "industrial")
(set-info :status unsat)
;; MathSAT API call trace
;; generated on Mon Mar 19 10:48:51 2012
(declare-fun b.event_is_timed__AT1 () Bool)
(declare-fun b.counter.0__AT1 () Bool)
(declare-fun b.speed_x__AT0 () Real)
(declare-fun b.speed_x__AT2 () Real)
(declare-fun b.counter.1__AT1 () Bool)
(declare-fun b.speed_y__AT2 () Real)
(declare-fun b.time__AT0 () Real)
(declare-fun b.counter.2__AT0 () Bool)
(declare-fun b.counter.2__AT1 () Bool)
(declare-fun b.counter.3__AT1 () Bool)
(declare-fun b.x__AT0 () Real)
(declare-fun b.event_is_timed__AT2 () Bool)
(declare-fun b.speed_x__AT1 () Real)
(declare-fun b.time__AT1 () Real)
(declare-fun g__AT0 () Real)
(declare-fun b.y__AT0 () Real)
(declare-fun b.EVENT.0__AT1 () Bool)
(declare-fun b.speed_y__AT1 () Real)
(declare-fun b.delta__AT1 () Real)
(declare-fun b.counter.0__AT0 () Bool)
(declare-fun b.EVENT.1__AT1 () Bool)
(declare-fun b.delta__AT0 () Real)
(declare-fun b.counter.1__AT0 () Bool)
(declare-fun b.counter.3__AT2 () Bool)
(declare-fun b.time__AT2 () Real)
(declare-fun b.EVENT.0__AT0 () Bool)
(declare-fun b.delta__AT2 () Real)
(declare-fun b.event_is_timed__AT0 () Bool)
(declare-fun b.x__AT2 () Real)
(declare-fun b.EVENT.0__AT2 () Bool)
(declare-fun b.x__AT1 () Real)
(declare-fun b.EVENT.1__AT2 () Bool)
(declare-fun b.speed_y__AT0 () Real)
(declare-fun b.y__AT3 () Real)
(declare-fun b.y__AT2 () Real)
(declare-fun b.EVENT.1__AT0 () Bool)
(declare-fun b.counter.3__AT0 () Bool)
(declare-fun b.counter.0__AT2 () Bool)
(declare-fun b.counter.1__AT2 () Bool)
(declare-fun b.counter.2__AT2 () Bool)
(declare-fun speed_loss__AT0 () Real)
(declare-fun b.y__AT1 () Real)
(assert (let ((.def_669 (= b.y__AT2 b.y__AT3)))
(let ((.def_670 (not .def_669)))
(let ((.def_583 (* g__AT0 b.delta__AT2)))
(let ((.def_657 (<= b.speed_y__AT2 .def_583)))
(let ((.def_658 (not .def_657)))
(let ((.def_586 (* 2.0 b.speed_y__AT2)))
(let ((.def_587 (* b.delta__AT2 .def_586)))
(let ((.def_584 (* b.delta__AT2 .def_583)))
(let ((.def_585 (* (- 1.0) .def_584)))
(let ((.def_588 (+ .def_585 .def_587)))
(let ((.def_589 (* 2.0 b.y__AT2)))
(let ((.def_591 (+ .def_589 .def_588)))
(let ((.def_649 (= .def_591 0.0 )))
(let ((.def_650 (not .def_649)))
(let ((.def_659 (or .def_650 .def_658)))
(let ((.def_109 (* 2.0 g__AT0)))
(let ((.def_636 (* .def_109 b.speed_y__AT2)))
(let ((.def_637 (* b.delta__AT2 .def_636)))
(let ((.def_129 (* g__AT0 g__AT0)))
(let ((.def_633 (* .def_129 b.delta__AT2)))
(let ((.def_634 (* b.delta__AT2 .def_633)))
(let ((.def_635 (* (- 1.0) .def_634)))
(let ((.def_638 (+ .def_635 .def_637)))
(let ((.def_618 (* .def_109 b.y__AT2)))
(let ((.def_639 (+ .def_618 .def_638)))
(let ((.def_644 (<= 0.0 .def_639)))
(let ((.def_596 (* g__AT0 b.speed_y__AT2)))
(let ((.def_641 (<= .def_633 .def_596)))
(let ((.def_645 (or .def_641 .def_644)))
(let ((.def_660 (and .def_645 .def_659)))
(let ((.def_598 (* b.speed_y__AT2 b.speed_y__AT2)))
(let ((.def_619 (+ .def_598 .def_618)))
(let ((.def_654 (<= .def_619 0.0 )))
(let ((.def_655 (not .def_654)))
(let ((.def_125 (<= 0.0 g__AT0)))
(let ((.def_126 (not .def_125)))
(let ((.def_656 (or .def_126 .def_655)))
(let ((.def_661 (or .def_656 .def_660)))
(let ((.def_623 (* g__AT0 b.y__AT2)))
(let ((.def_627 (<= .def_623 0.0 )))
(let ((.def_626 (<= .def_596 0.0 )))
(let ((.def_628 (and .def_626 .def_627)))
(let ((.def_662 (or .def_628 .def_661)))
(let ((.def_647 (<= .def_583 b.speed_y__AT2)))
(let ((.def_648 (not .def_647)))
(let ((.def_651 (or .def_648 .def_650)))
(let ((.def_640 (<= .def_639 0.0 )))
(let ((.def_642 (and .def_640 .def_641)))
(let ((.def_643 (or .def_126 .def_642)))
(let ((.def_646 (and .def_643 .def_645)))
(let ((.def_652 (and .def_646 .def_651)))
(let ((.def_630 (= .def_619 0.0 )))
(let ((.def_631 (and .def_126 .def_630)))
(let ((.def_624 (<= 0.0 .def_623)))
(let ((.def_117 (<= g__AT0 0.0 )))
(let ((.def_118 (not .def_117)))
(let ((.def_625 (and .def_118 .def_624)))
(let ((.def_629 (or .def_625 .def_628)))
(let ((.def_632 (or .def_629 .def_631)))
(let ((.def_653 (or .def_632 .def_652)))
(let ((.def_663 (and .def_653 .def_662)))
(let ((.def_620 (<= 0.0 .def_619)))
(let ((.def_621 (not .def_620)))
(let ((.def_92 (= g__AT0 0.0 )))
(let ((.def_622 (or .def_92 .def_621)))
(let ((.def_664 (or .def_622 .def_663)))
(let ((.def_611 (* b.speed_y__AT2 b.delta__AT2)))
(let ((.def_612 (+ b.y__AT2 .def_611)))
(let ((.def_613 (= .def_612 0.0 )))
(let ((.def_614 (not .def_613)))
(let ((.def_608 (* b.delta__AT2 .def_598)))
(let ((.def_603 (* b.y__AT2 b.speed_y__AT2)))
(let ((.def_609 (+ .def_603 .def_608)))
(let ((.def_610 (<= .def_609 0.0 )))
(let ((.def_615 (and .def_610 .def_614)))
(let ((.def_606 (= b.speed_y__AT2 0.0 )))
(let ((.def_604 (<= 0.0 .def_603)))
(let ((.def_599 (* b.speed_y__AT2 .def_598)))
(let ((.def_597 (* b.y__AT2 .def_596)))
(let ((.def_600 (+ .def_597 .def_599)))
(let ((.def_601 (<= .def_600 0.0 )))
(let ((.def_93 (not .def_92)))
(let ((.def_602 (or .def_93 .def_601)))
(let ((.def_605 (or .def_602 .def_604)))
(let ((.def_607 (or .def_605 .def_606)))
(let ((.def_616 (or .def_607 .def_615)))
(let ((.def_593 (<= 0.0 b.delta__AT2)))
(let ((.def_594 (not .def_593)))
(let ((.def_592 (<= 0.0 .def_591)))
(let ((.def_595 (or .def_592 .def_594)))
(let ((.def_617 (and .def_595 .def_616)))
(let ((.def_665 (and .def_617 .def_664)))
(let ((.def_568 (not b.EVENT.0__AT2)))
(let ((.def_566 (not b.EVENT.1__AT2)))
(let ((.def_580 (and .def_566 .def_568)))
(let ((.def_666 (and .def_580 .def_665)))
(let ((.def_667 (not .def_666)))
(let ((.def_671 (or .def_667 .def_670)))
(let ((.def_581 (not .def_580)))
(let ((.def_672 (or .def_581 .def_671)))
(let ((.def_228 (not b.counter.0__AT1)))
(let ((.def_575 (or b.counter.1__AT1 .def_228)))
(let ((.def_223 (not b.counter.2__AT1)))
(let ((.def_576 (or .def_223 .def_575)))
(let ((.def_577 (or b.counter.3__AT1 .def_576)))
(let ((.def_571 (<= 0.0 b.y__AT2)))
(let ((.def_61 (<= speed_loss__AT0 (/ 1 2))))
(let ((.def_58 (<= (/ 1 10) speed_loss__AT0)))
(let ((.def_62 (and .def_58 .def_61)))
(let ((.def_53 (<= g__AT0 10.0 )))
(let ((.def_52 (<= 8.0 g__AT0)))
(let ((.def_54 (and .def_52 .def_53)))
(let ((.def_63 (and .def_54 .def_62)))
(let ((.def_572 (and .def_63 .def_571)))
(let ((.def_569 (or .def_566 .def_568)))
(let ((.def_465 (not b.counter.1__AT2)))
(let ((.def_4 (not b.counter.0__AT2)))
(let ((.def_559 (or .def_4 .def_465)))
(let ((.def_563 (or b.counter.3__AT2 .def_559)))
(let ((.def_560 (or b.counter.2__AT2 .def_559)))
(let ((.def_8 (not b.counter.2__AT2)))
(let ((.def_558 (or .def_4 .def_8)))
(let ((.def_561 (and .def_558 .def_560)))
(let ((.def_482 (not b.counter.3__AT2)))
(let ((.def_562 (or .def_482 .def_561)))
(let ((.def_564 (and .def_562 .def_563)))
(let ((.def_570 (and .def_564 .def_569)))
(let ((.def_573 (and .def_570 .def_572)))
(let ((.def_349 (<= 0.0 b.delta__AT1)))
(let ((.def_324 (not b.EVENT.0__AT1)))
(let ((.def_322 (not b.EVENT.1__AT1)))
(let ((.def_336 (and .def_322 .def_324)))
(let ((.def_337 (not .def_336)))
(let ((.def_554 (or .def_337 .def_349)))
(let ((.def_555 (or b.EVENT.1__AT1 .def_554)))
(let ((.def_504 (= b.counter.0__AT2 b.counter.0__AT1)))
(let ((.def_502 (= b.counter.1__AT2 b.counter.1__AT1)))
(let ((.def_500 (= b.counter.2__AT2 b.counter.2__AT1)))
(let ((.def_499 (= b.counter.3__AT2 b.counter.3__AT1)))
(let ((.def_501 (and .def_499 .def_500)))
(let ((.def_503 (and .def_501 .def_502)))
(let ((.def_505 (and .def_503 .def_504)))
(let ((.def_551 (or .def_337 .def_505)))
(let ((.def_552 (or b.EVENT.1__AT1 .def_551)))
(let ((.def_511 (= b.x__AT1 b.x__AT2)))
(let ((.def_425 (= b.y__AT1 b.y__AT2)))
(let ((.def_545 (and .def_425 .def_511)))
(let ((.def_437 (= b.speed_x__AT1 b.speed_x__AT2)))
(let ((.def_546 (and .def_437 .def_545)))
(let ((.def_498 (= b.speed_y__AT1 b.speed_y__AT2)))
(let ((.def_547 (and .def_498 .def_546)))
(let ((.def_542 (= b.delta__AT1 0.0 )))
(let ((.def_543 (and .def_336 .def_542)))
(let ((.def_544 (not .def_543)))
(let ((.def_548 (or .def_544 .def_547)))
(let ((.def_549 (or b.EVENT.1__AT1 .def_548)))
(let ((.def_522 (= b.time__AT1 b.time__AT2)))
(let ((.def_534 (and .def_511 .def_522)))
(let ((.def_535 (and .def_425 .def_534)))
(let ((.def_536 (and .def_437 .def_535)))
(let ((.def_537 (and .def_498 .def_536)))
(let ((.def_538 (and .def_505 .def_537)))
(let ((.def_539 (or .def_322 .def_538)))
(let ((.def_525 (* (- 1.0) b.time__AT2)))
(let ((.def_528 (+ b.delta__AT1 .def_525)))
(let ((.def_529 (+ b.time__AT1 .def_528)))
(let ((.def_530 (= .def_529 0.0 )))
(let ((.def_531 (or .def_337 .def_530)))
(let ((.def_532 (or b.EVENT.1__AT1 .def_531)))
(let ((.def_523 (or .def_336 .def_522)))
(let ((.def_524 (or b.EVENT.1__AT1 .def_523)))
(let ((.def_533 (and .def_524 .def_532)))
(let ((.def_540 (and .def_533 .def_539)))
(let ((.def_518 (= .def_337 b.event_is_timed__AT2)))
(let ((.def_516 (= b.event_is_timed__AT1 .def_336)))
(let ((.def_519 (and .def_516 .def_518)))
(let ((.def_506 (and .def_498 .def_505)))
(let ((.def_459 (<= 0.0 b.speed_y__AT1)))
(let ((.def_460 (not .def_459)))
(let ((.def_458 (= b.y__AT1 0.0 )))
(let ((.def_461 (and .def_458 .def_460)))
(let ((.def_507 (or .def_461 .def_506)))
(let ((.def_474 (or .def_4 b.counter.0__AT1)))
(let ((.def_473 (or b.counter.0__AT2 .def_228)))
(let ((.def_475 (and .def_473 .def_474)))
(let ((.def_476 (and .def_465 .def_475)))
(let ((.def_477 (or b.counter.1__AT1 .def_476)))
(let ((.def_216 (not b.counter.1__AT1)))
(let ((.def_472 (or b.counter.1__AT2 .def_216)))
(let ((.def_478 (and .def_472 .def_477)))
(let ((.def_490 (and .def_8 .def_478)))
(let ((.def_491 (or b.counter.2__AT1 .def_490)))
(let ((.def_485 (and .def_228 .def_465)))
(let ((.def_486 (or b.counter.1__AT1 .def_485)))
(let ((.def_487 (and .def_472 .def_486)))
(let ((.def_488 (and b.counter.2__AT2 .def_487)))
(let ((.def_489 (or .def_223 .def_488)))
(let ((.def_492 (and .def_489 .def_491)))
(let ((.def_493 (and b.counter.3__AT2 .def_492)))
(let ((.def_494 (or b.counter.3__AT1 .def_493)))
(let ((.def_479 (and b.counter.2__AT2 .def_478)))
(let ((.def_480 (or b.counter.2__AT1 .def_479)))
(let ((.def_468 (or b.counter.1__AT2 b.counter.1__AT1)))
(let ((.def_466 (and b.counter.0__AT2 .def_465)))
(let ((.def_467 (or .def_216 .def_466)))
(let ((.def_469 (and .def_467 .def_468)))
(let ((.def_470 (and .def_8 .def_469)))
(let ((.def_471 (or .def_223 .def_470)))
(let ((.def_481 (and .def_471 .def_480)))
(let ((.def_483 (and .def_481 .def_482)))
(let ((.def_238 (not b.counter.3__AT1)))
(let ((.def_484 (or .def_238 .def_483)))
(let ((.def_495 (and .def_484 .def_494)))
(let ((.def_210 (* (- 1.0) speed_loss__AT0)))
(let ((.def_211 (+ 1.0 .def_210)))
(let ((.def_187 (* (- 1.0) b.speed_y__AT1)))
(let ((.def_463 (* .def_187 .def_211)))
(let ((.def_464 (= b.speed_y__AT2 .def_463)))
(let ((.def_496 (and .def_464 .def_495)))
(let ((.def_462 (not .def_461)))
(let ((.def_497 (or .def_462 .def_496)))
(let ((.def_508 (and .def_497 .def_507)))
(let ((.def_509 (and .def_425 .def_508)))
(let ((.def_510 (and .def_437 .def_509)))
(let ((.def_512 (and .def_510 .def_511)))
(let ((.def_513 (or .def_336 .def_512)))
(let ((.def_514 (or b.EVENT.1__AT1 .def_513)))
(let ((.def_446 (* b.delta__AT1 b.delta__AT1)))
(let ((.def_184 (* (- 1.0) g__AT0)))
(let ((.def_192 (* (/ 1 2) .def_184)))
(let ((.def_447 (* .def_192 .def_446)))
(let ((.def_449 (* (- 1.0) b.y__AT2)))
(let ((.def_452 (+ .def_449 .def_447)))
(let ((.def_367 (* b.speed_y__AT1 b.delta__AT1)))
(let ((.def_453 (+ .def_367 .def_452)))
(let ((.def_454 (+ b.y__AT1 .def_453)))
(let ((.def_455 (= .def_454 0.0 )))
(let ((.def_441 (* (- 1.0) b.speed_y__AT2)))
(let ((.def_439 (* .def_184 b.delta__AT1)))
(let ((.def_442 (+ .def_439 .def_441)))
(let ((.def_443 (+ b.speed_y__AT1 .def_442)))
(let ((.def_444 (= .def_443 0.0 )))
(let ((.def_432 (* (- 1.0) b.x__AT2)))
(let ((.def_430 (* b.speed_x__AT1 b.delta__AT1)))
(let ((.def_433 (+ .def_430 .def_432)))
(let ((.def_434 (+ b.x__AT1 .def_433)))
(let ((.def_435 (= .def_434 0.0 )))
(let ((.def_438 (and .def_435 .def_437)))
(let ((.def_445 (and .def_438 .def_444)))
(let ((.def_456 (and .def_445 .def_455)))
(let ((.def_457 (or .def_337 .def_456)))
(let ((.def_515 (and .def_457 .def_514)))
(let ((.def_520 (and .def_515 .def_519)))
(let ((.def_541 (and .def_520 .def_540)))
(let ((.def_550 (and .def_541 .def_549)))
(let ((.def_553 (and .def_550 .def_552)))
(let ((.def_556 (and .def_553 .def_555)))
(let ((.def_557 (and .def_322 .def_556)))
(let ((.def_574 (and .def_557 .def_573)))
(let ((.def_578 (and .def_574 .def_577)))
(let ((.def_426 (not .def_425)))
(let ((.def_339 (* g__AT0 b.delta__AT1)))
(let ((.def_413 (<= b.speed_y__AT1 .def_339)))
(let ((.def_414 (not .def_413)))
(let ((.def_342 (* 2.0 b.speed_y__AT1)))
(let ((.def_343 (* b.delta__AT1 .def_342)))
(let ((.def_340 (* b.delta__AT1 .def_339)))
(let ((.def_341 (* (- 1.0) .def_340)))
(let ((.def_344 (+ .def_341 .def_343)))
(let ((.def_345 (* 2.0 b.y__AT1)))
(let ((.def_347 (+ .def_345 .def_344)))
(let ((.def_405 (= .def_347 0.0 )))
(let ((.def_406 (not .def_405)))
(let ((.def_415 (or .def_406 .def_414)))
(let ((.def_392 (* .def_109 b.speed_y__AT1)))
(let ((.def_393 (* b.delta__AT1 .def_392)))
(let ((.def_389 (* .def_129 b.delta__AT1)))
(let ((.def_390 (* b.delta__AT1 .def_389)))
(let ((.def_391 (* (- 1.0) .def_390)))
(let ((.def_394 (+ .def_391 .def_393)))
(let ((.def_374 (* .def_109 b.y__AT1)))
(let ((.def_395 (+ .def_374 .def_394)))
(let ((.def_400 (<= 0.0 .def_395)))
(let ((.def_352 (* g__AT0 b.speed_y__AT1)))
(let ((.def_397 (<= .def_389 .def_352)))
(let ((.def_401 (or .def_397 .def_400)))
(let ((.def_416 (and .def_401 .def_415)))
(let ((.def_354 (* b.speed_y__AT1 b.speed_y__AT1)))
(let ((.def_375 (+ .def_354 .def_374)))
(let ((.def_410 (<= .def_375 0.0 )))
(let ((.def_411 (not .def_410)))
(let ((.def_412 (or .def_126 .def_411)))
(let ((.def_417 (or .def_412 .def_416)))
(let ((.def_379 (* g__AT0 b.y__AT1)))
(let ((.def_383 (<= .def_379 0.0 )))
(let ((.def_382 (<= .def_352 0.0 )))
(let ((.def_384 (and .def_382 .def_383)))
(let ((.def_418 (or .def_384 .def_417)))
(let ((.def_403 (<= .def_339 b.speed_y__AT1)))
(let ((.def_404 (not .def_403)))
(let ((.def_407 (or .def_404 .def_406)))
(let ((.def_396 (<= .def_395 0.0 )))
(let ((.def_398 (and .def_396 .def_397)))
(let ((.def_399 (or .def_126 .def_398)))
(let ((.def_402 (and .def_399 .def_401)))
(let ((.def_408 (and .def_402 .def_407)))
(let ((.def_386 (= .def_375 0.0 )))
(let ((.def_387 (and .def_126 .def_386)))
(let ((.def_380 (<= 0.0 .def_379)))
(let ((.def_381 (and .def_118 .def_380)))
(let ((.def_385 (or .def_381 .def_384)))
(let ((.def_388 (or .def_385 .def_387)))
(let ((.def_409 (or .def_388 .def_408)))
(let ((.def_419 (and .def_409 .def_418)))
(let ((.def_376 (<= 0.0 .def_375)))
(let ((.def_377 (not .def_376)))
(let ((.def_378 (or .def_92 .def_377)))
(let ((.def_420 (or .def_378 .def_419)))
(let ((.def_368 (+ b.y__AT1 .def_367)))
(let ((.def_369 (= .def_368 0.0 )))
(let ((.def_370 (not .def_369)))
(let ((.def_364 (* b.delta__AT1 .def_354)))
(let ((.def_359 (* b.y__AT1 b.speed_y__AT1)))
(let ((.def_365 (+ .def_359 .def_364)))
(let ((.def_366 (<= .def_365 0.0 )))
(let ((.def_371 (and .def_366 .def_370)))
(let ((.def_362 (= b.speed_y__AT1 0.0 )))
(let ((.def_360 (<= 0.0 .def_359)))
(let ((.def_355 (* b.speed_y__AT1 .def_354)))
(let ((.def_353 (* b.y__AT1 .def_352)))
(let ((.def_356 (+ .def_353 .def_355)))
(let ((.def_357 (<= .def_356 0.0 )))
(let ((.def_358 (or .def_93 .def_357)))
(let ((.def_361 (or .def_358 .def_360)))
(let ((.def_363 (or .def_361 .def_362)))
(let ((.def_372 (or .def_363 .def_371)))
(let ((.def_350 (not .def_349)))
(let ((.def_348 (<= 0.0 .def_347)))
(let ((.def_351 (or .def_348 .def_350)))
(let ((.def_373 (and .def_351 .def_372)))
(let ((.def_421 (and .def_373 .def_420)))
(let ((.def_422 (and .def_336 .def_421)))
(let ((.def_423 (not .def_422)))
(let ((.def_427 (or .def_423 .def_426)))
(let ((.def_428 (or .def_337 .def_427)))
(let ((.def_28 (not b.counter.0__AT0)))
(let ((.def_331 (or b.counter.1__AT0 .def_28)))
(let ((.def_31 (not b.counter.2__AT0)))
(let ((.def_332 (or .def_31 .def_331)))
(let ((.def_333 (or b.counter.3__AT0 .def_332)))
(let ((.def_327 (<= 0.0 b.y__AT1)))
(let ((.def_328 (and .def_63 .def_327)))
(let ((.def_325 (or .def_322 .def_324)))
(let ((.def_315 (or .def_216 .def_228)))
(let ((.def_319 (or b.counter.3__AT1 .def_315)))
(let ((.def_316 (or b.counter.2__AT1 .def_315)))
(let ((.def_314 (or .def_223 .def_228)))
(let ((.def_317 (and .def_314 .def_316)))
(let ((.def_318 (or .def_238 .def_317)))
(let ((.def_320 (and .def_318 .def_319)))
(let ((.def_326 (and .def_320 .def_325)))
(let ((.def_329 (and .def_326 .def_328)))
(let ((.def_83 (<= 0.0 b.delta__AT0)))
(let ((.def_47 (not b.EVENT.0__AT0)))
(let ((.def_45 (not b.EVENT.1__AT0)))
(let ((.def_69 (and .def_45 .def_47)))
(let ((.def_70 (not .def_69)))
(let ((.def_310 (or .def_70 .def_83)))
(let ((.def_311 (or b.EVENT.1__AT0 .def_310)))
(let ((.def_260 (= b.counter.0__AT0 b.counter.0__AT1)))
(let ((.def_258 (= b.counter.1__AT0 b.counter.1__AT1)))
(let ((.def_256 (= b.counter.2__AT0 b.counter.2__AT1)))
(let ((.def_255 (= b.counter.3__AT0 b.counter.3__AT1)))
(let ((.def_257 (and .def_255 .def_256)))
(let ((.def_259 (and .def_257 .def_258)))
(let ((.def_261 (and .def_259 .def_260)))
(let ((.def_307 (or .def_70 .def_261)))
(let ((.def_308 (or b.EVENT.1__AT0 .def_307)))
(let ((.def_267 (= b.x__AT1 b.x__AT0)))
(let ((.def_166 (= b.y__AT0 b.y__AT1)))
(let ((.def_301 (and .def_166 .def_267)))
(let ((.def_182 (= b.speed_x__AT0 b.speed_x__AT1)))
(let ((.def_302 (and .def_182 .def_301)))
(let ((.def_254 (= b.speed_y__AT0 b.speed_y__AT1)))
(let ((.def_303 (and .def_254 .def_302)))
(let ((.def_298 (= b.delta__AT0 0.0 )))
(let ((.def_299 (and .def_69 .def_298)))
(let ((.def_300 (not .def_299)))
(let ((.def_304 (or .def_300 .def_303)))
(let ((.def_305 (or b.EVENT.1__AT0 .def_304)))
(let ((.def_278 (= b.time__AT0 b.time__AT1)))
(let ((.def_290 (and .def_267 .def_278)))
(let ((.def_291 (and .def_166 .def_290)))
(let ((.def_292 (and .def_182 .def_291)))
(let ((.def_293 (and .def_254 .def_292)))
(let ((.def_294 (and .def_261 .def_293)))
(let ((.def_295 (or .def_45 .def_294)))
(let ((.def_281 (* (- 1.0) b.time__AT1)))
(let ((.def_284 (+ b.delta__AT0 .def_281)))
(let ((.def_285 (+ b.time__AT0 .def_284)))
(let ((.def_286 (= .def_285 0.0 )))
(let ((.def_287 (or .def_70 .def_286)))
(let ((.def_288 (or b.EVENT.1__AT0 .def_287)))
(let ((.def_279 (or .def_69 .def_278)))
(let ((.def_280 (or b.EVENT.1__AT0 .def_279)))
(let ((.def_289 (and .def_280 .def_288)))
(let ((.def_296 (and .def_289 .def_295)))
(let ((.def_274 (= .def_70 b.event_is_timed__AT1)))
(let ((.def_272 (= b.event_is_timed__AT0 .def_69)))
(let ((.def_275 (and .def_272 .def_274)))
(let ((.def_262 (and .def_254 .def_261)))
(let ((.def_206 (<= 0.0 b.speed_y__AT0)))
(let ((.def_207 (not .def_206)))
(let ((.def_205 (= b.y__AT0 0.0 )))
(let ((.def_208 (and .def_205 .def_207)))
(let ((.def_263 (or .def_208 .def_262)))
(let ((.def_229 (or b.counter.0__AT0 .def_228)))
(let ((.def_227 (or .def_28 b.counter.0__AT1)))
(let ((.def_230 (and .def_227 .def_229)))
(let ((.def_231 (and .def_216 .def_230)))
(let ((.def_232 (or b.counter.1__AT0 .def_231)))
(let ((.def_26 (not b.counter.1__AT0)))
(let ((.def_226 (or .def_26 b.counter.1__AT1)))
(let ((.def_233 (and .def_226 .def_232)))
(let ((.def_246 (and .def_223 .def_233)))
(let ((.def_247 (or b.counter.2__AT0 .def_246)))
(let ((.def_241 (and .def_28 .def_216)))
(let ((.def_242 (or b.counter.1__AT0 .def_241)))
(let ((.def_243 (and .def_226 .def_242)))
(let ((.def_244 (and b.counter.2__AT1 .def_243)))
(let ((.def_245 (or .def_31 .def_244)))
(let ((.def_248 (and .def_245 .def_247)))
(let ((.def_249 (and b.counter.3__AT1 .def_248)))
(let ((.def_250 (or b.counter.3__AT0 .def_249)))
(let ((.def_234 (and b.counter.2__AT1 .def_233)))
(let ((.def_235 (or b.counter.2__AT0 .def_234)))
(let ((.def_220 (or b.counter.1__AT0 b.counter.1__AT1)))
(let ((.def_218 (and .def_216 b.counter.0__AT1)))
(let ((.def_219 (or .def_26 .def_218)))
(let ((.def_221 (and .def_219 .def_220)))
(let ((.def_224 (and .def_221 .def_223)))
(let ((.def_225 (or .def_31 .def_224)))
(let ((.def_236 (and .def_225 .def_235)))
(let ((.def_239 (and .def_236 .def_238)))
(let ((.def_34 (not b.counter.3__AT0)))
(let ((.def_240 (or .def_34 .def_239)))
(let ((.def_251 (and .def_240 .def_250)))
(let ((.def_212 (* (- 1.0) b.speed_y__AT0)))
(let ((.def_213 (* .def_211 .def_212)))
(let ((.def_214 (= b.speed_y__AT1 .def_213)))
(let ((.def_252 (and .def_214 .def_251)))
(let ((.def_209 (not .def_208)))
(let ((.def_253 (or .def_209 .def_252)))
(let ((.def_264 (and .def_253 .def_263)))
(let ((.def_265 (and .def_166 .def_264)))
(let ((.def_266 (and .def_182 .def_265)))
(let ((.def_268 (and .def_266 .def_267)))
(let ((.def_269 (or .def_69 .def_268)))
(let ((.def_270 (or b.EVENT.1__AT0 .def_269)))
(let ((.def_193 (* b.delta__AT0 b.delta__AT0)))
(let ((.def_194 (* .def_192 .def_193)))
(let ((.def_196 (* (- 1.0) b.y__AT1)))
(let ((.def_199 (+ .def_196 .def_194)))
(let ((.def_102 (* b.speed_y__AT0 b.delta__AT0)))
(let ((.def_200 (+ .def_102 .def_199)))
(let ((.def_201 (+ b.y__AT0 .def_200)))
(let ((.def_202 (= .def_201 0.0 )))
(let ((.def_185 (* b.delta__AT0 .def_184)))
(let ((.def_188 (+ .def_185 .def_187)))
(let ((.def_189 (+ b.speed_y__AT0 .def_188)))
(let ((.def_190 (= .def_189 0.0 )))
(let ((.def_174 (* (- 1.0) b.x__AT1)))
(let ((.def_178 (+ .def_174 b.x__AT0)))
(let ((.def_172 (* b.delta__AT0 b.speed_x__AT0)))
(let ((.def_179 (+ .def_172 .def_178)))
(let ((.def_180 (= .def_179 0.0 )))
(let ((.def_183 (and .def_180 .def_182)))
(let ((.def_191 (and .def_183 .def_190)))
(let ((.def_203 (and .def_191 .def_202)))
(let ((.def_204 (or .def_70 .def_203)))
(let ((.def_271 (and .def_204 .def_270)))
(let ((.def_276 (and .def_271 .def_275)))
(let ((.def_297 (and .def_276 .def_296)))
(let ((.def_306 (and .def_297 .def_305)))
(let ((.def_309 (and .def_306 .def_308)))
(let ((.def_312 (and .def_309 .def_311)))
(let ((.def_313 (and .def_45 .def_312)))
(let ((.def_330 (and .def_313 .def_329)))
(let ((.def_334 (and .def_330 .def_333)))
(let ((.def_167 (not .def_166)))
(let ((.def_72 (* g__AT0 b.delta__AT0)))
(let ((.def_154 (<= b.speed_y__AT0 .def_72)))
(let ((.def_155 (not .def_154)))
(let ((.def_76 (* 2.0 b.speed_y__AT0)))
(let ((.def_77 (* b.delta__AT0 .def_76)))
(let ((.def_73 (* b.delta__AT0 .def_72)))
(let ((.def_75 (* (- 1.0) .def_73)))
(let ((.def_78 (+ .def_75 .def_77)))
(let ((.def_79 (* 2.0 b.y__AT0)))
(let ((.def_81 (+ .def_79 .def_78)))
(let ((.def_146 (= .def_81 0.0 )))
(let ((.def_147 (not .def_146)))
(let ((.def_156 (or .def_147 .def_155)))
(let ((.def_133 (* b.speed_y__AT0 .def_109)))
(let ((.def_134 (* b.delta__AT0 .def_133)))
(let ((.def_130 (* b.delta__AT0 .def_129)))
(let ((.def_131 (* b.delta__AT0 .def_130)))
(let ((.def_132 (* (- 1.0) .def_131)))
(let ((.def_135 (+ .def_132 .def_134)))
(let ((.def_110 (* b.y__AT0 .def_109)))
(let ((.def_136 (+ .def_110 .def_135)))
(let ((.def_141 (<= 0.0 .def_136)))
(let ((.def_86 (* b.speed_y__AT0 g__AT0)))
(let ((.def_138 (<= .def_130 .def_86)))
(let ((.def_142 (or .def_138 .def_141)))
(let ((.def_157 (and .def_142 .def_156)))
(let ((.def_88 (* b.speed_y__AT0 b.speed_y__AT0)))
(let ((.def_111 (+ .def_88 .def_110)))
(let ((.def_151 (<= .def_111 0.0 )))
(let ((.def_152 (not .def_151)))
(let ((.def_153 (or .def_126 .def_152)))
(let ((.def_158 (or .def_153 .def_157)))
(let ((.def_115 (* b.y__AT0 g__AT0)))
(let ((.def_121 (<= .def_115 0.0 )))
(let ((.def_120 (<= .def_86 0.0 )))
(let ((.def_122 (and .def_120 .def_121)))
(let ((.def_159 (or .def_122 .def_158)))
(let ((.def_144 (<= .def_72 b.speed_y__AT0)))
(let ((.def_145 (not .def_144)))
(let ((.def_148 (or .def_145 .def_147)))
(let ((.def_137 (<= .def_136 0.0 )))
(let ((.def_139 (and .def_137 .def_138)))
(let ((.def_140 (or .def_126 .def_139)))
(let ((.def_143 (and .def_140 .def_142)))
(let ((.def_149 (and .def_143 .def_148)))
(let ((.def_124 (= .def_111 0.0 )))
(let ((.def_127 (and .def_124 .def_126)))
(let ((.def_116 (<= 0.0 .def_115)))
(let ((.def_119 (and .def_116 .def_118)))
(let ((.def_123 (or .def_119 .def_122)))
(let ((.def_128 (or .def_123 .def_127)))
(let ((.def_150 (or .def_128 .def_149)))
(let ((.def_160 (and .def_150 .def_159)))
(let ((.def_112 (<= 0.0 .def_111)))
(let ((.def_113 (not .def_112)))
(let ((.def_114 (or .def_92 .def_113)))
(let ((.def_161 (or .def_114 .def_160)))
(let ((.def_103 (+ b.y__AT0 .def_102)))
(let ((.def_104 (= .def_103 0.0 )))
(let ((.def_105 (not .def_104)))
(let ((.def_99 (* b.delta__AT0 .def_88)))
(let ((.def_95 (* b.y__AT0 b.speed_y__AT0)))
(let ((.def_100 (+ .def_95 .def_99)))
(let ((.def_101 (<= .def_100 0.0 )))
(let ((.def_106 (and .def_101 .def_105)))
(let ((.def_96 (<= 0.0 .def_95)))
(let ((.def_89 (* b.speed_y__AT0 .def_88)))
(let ((.def_87 (* b.y__AT0 .def_86)))
(let ((.def_90 (+ .def_87 .def_89)))
(let ((.def_91 (<= .def_90 0.0 )))
(let ((.def_94 (or .def_91 .def_93)))
(let ((.def_97 (or .def_94 .def_96)))
(let ((.def_23 (= b.speed_y__AT0 0.0 )))
(let ((.def_98 (or .def_23 .def_97)))
(let ((.def_107 (or .def_98 .def_106)))
(let ((.def_84 (not .def_83)))
(let ((.def_82 (<= 0.0 .def_81)))
(let ((.def_85 (or .def_82 .def_84)))
(let ((.def_108 (and .def_85 .def_107)))
(let ((.def_162 (and .def_108 .def_161)))
(let ((.def_163 (and .def_69 .def_162)))
(let ((.def_164 (not .def_163)))
(let ((.def_168 (or .def_164 .def_167)))
(let ((.def_169 (or .def_70 .def_168)))
(let ((.def_64 (<= 0.0 b.y__AT0)))
(let ((.def_65 (and .def_63 .def_64)))
(let ((.def_48 (or .def_45 .def_47)))
(let ((.def_38 (or .def_26 .def_28)))
(let ((.def_42 (or b.counter.3__AT0 .def_38)))
(let ((.def_39 (or b.counter.2__AT0 .def_38)))
(let ((.def_37 (or .def_28 .def_31)))
(let ((.def_40 (and .def_37 .def_39)))
(let ((.def_41 (or .def_34 .def_40)))
(let ((.def_43 (and .def_41 .def_42)))
(let ((.def_49 (and .def_43 .def_48)))
(let ((.def_66 (and .def_49 .def_65)))
(let ((.def_29 (and .def_26 .def_28)))
(let ((.def_32 (and .def_29 .def_31)))
(let ((.def_35 (and .def_32 .def_34)))
(let ((.def_20 (= b.y__AT0 10.0 )))
(let ((.def_15 (= b.time__AT0 0.0 )))
(let ((.def_17 (and .def_15 b.event_is_timed__AT0)))
(let ((.def_21 (and .def_17 .def_20)))
(let ((.def_24 (and .def_21 .def_23)))
(let ((.def_36 (and .def_24 .def_35)))
(let ((.def_67 (and .def_36 .def_66)))
(let ((.def_6 (or .def_4 b.counter.1__AT2)))
(let ((.def_9 (or .def_6 .def_8)))
(let ((.def_11 (or .def_9 b.counter.3__AT2)))
(let ((.def_12 (not .def_11)))
(let ((.def_68 (and .def_12 .def_67)))
(let ((.def_170 (and .def_68 .def_169)))
(let ((.def_335 (and .def_170 .def_334)))
(let ((.def_429 (and .def_335 .def_428)))
(let ((.def_579 (and .def_429 .def_578)))
(let ((.def_673 (and .def_579 .def_672)))
.def_673)))))))))))))))))))))))))))))))))))))))))))))))))))))))))))))))))))))))))))))))))))))))))))))))))))))))))))))))))))))))))))))))))))))))))))))))))))))))))))))))))))))))))))))))))))))))))))))))))))))))))))))))))))))))))))))))))))))))))))))))))))))))))))))))))))))))))))))))))))))))))))))))))))))))))))))))))))))))))))))))))))))))))))))))))))))))))))))))))))))))))))))))))))))))))))))))))))))))))))))))))))))))))))))))))))))))))))))))))))))))))))))))))))))))))))))))))))))))))))))))))))))))))))))))))))))))))))))))))))))))))))))))))))))))))))))))))))))))))))))))))))))))))))))))))))))))))))))))))))))))))))))))
(check-sat)
(exit)
